param n := 250;
param c := 150;
param : V : p w :=
   0	  78	  68
   1	 100	  90
   2	  48	  38
   3	 108	  98
   4	  54	  44
   5	  76	  66
   6	  86	  76
   7	  77	  67
   8	  75	  65
   9	  91	  81
  10	 105	  95
  11	  72	  62
  12	  44	  34
  13	  43	  33
  14	  66	  56
  15	  85	  75
  16	  50	  40
  17	  82	  72
  18	  59	  49
  19	 105	  95
  20	  69	  59
  21	  50	  40
  22	  63	  53
  23	  37	  27
  24	  80	  70
  25	  37	  27
  26	  82	  72
  27	 102	  92
  28	  89	  79
  29	  76	  66
  30	 102	  92
  31	  57	  47
  32	  97	  87
  33	  42	  32
  34	  61	  51
  35	 104	  94
  36	  32	  22
  37	  89	  79
  38	  85	  75
  39	  80	  70
  40	  68	  58
  41	  95	  85
  42	  47	  37
  43	  78	  68
  44	  79	  69
  45	  57	  47
  46	  73	  63
  47	  47	  37
  48	  63	  53
  49	 100	  90
  50	  95	  85
  51	  98	  88
  52	  78	  68
  53	 110	 100
  54	  96	  86
  55	 103	  93
  56	  36	  26
  57	  54	  44
  58	  87	  77
  59	  82	  72
  60	  56	  46
  61	  68	  58
  62	  54	  44
  63	  59	  49
  64	 110	 100
  65	  82	  72
  66	  86	  76
  67	  84	  74
  68	  88	  78
  69	  40	  30
  70	  89	  79
  71	  40	  30
  72	  98	  88
  73	  39	  29
  74	  80	  70
  75	  79	  69
  76	  36	  26
  77	  63	  53
  78	  96	  86
  79	  58	  48
  80	  65	  55
  81	  40	  30
  82	 105	  95
  83	  32	  22
  84	  89	  79
  85	 104	  94
  86	  64	  54
  87	  53	  43
  88	  94	  84
  89	  61	  51
  90	  90	  80
  91	 100	  90
  92	  71	  61
  93	  53	  43
  94	  81	  71
  95	  82	  72
  96	  92	  82
  97	  93	  83
  98	 101	  91
  99	  66	  56
 100	  52	  42
 101	  55	  45
 102	  90	  80
 103	  83	  73
 104	  72	  62
 105	 105	  95
 106	  63	  53
 107	  50	  40
 108	  52	  42
 109	  73	  63
 110	  90	  80
 111	  89	  79
 112	  96	  86
 113	  69	  59
 114	  32	  22
 115	  72	  62
 116	  82	  72
 117	  61	  51
 118	  70	  60
 119	  65	  55
 120	  66	  56
 121	 102	  92
 122	  66	  56
 123	  65	  55
 124	  61	  51
 125	  44	  34
 126	 110	 100
 127	  99	  89
 128	  74	  64
 129	 109	  99
 130	  97	  87
 131	  84	  74
 132	  48	  38
 133	  38	  28
 134	  60	  50
 135	  96	  86
 136	 102	  92
 137	 108	  98
 138	  40	  30
 139	  40	  30
 140	  99	  89
 141	  61	  51
 142	  75	  65
 143	  41	  31
 144	  70	  60
 145	  95	  85
 146	  89	  79
 147	  49	  39
 148	  37	  27
 149	  71	  61
 150	  94	  84
 151	  51	  41
 152	  63	  53
 153	  87	  77
 154	  87	  77
 155	 104	  94
 156	  96	  86
 157	 101	  91
 158	  59	  49
 159	  57	  47
 160	  45	  35
 161	  38	  28
 162	  92	  82
 163	  83	  73
 164	  44	  34
 165	 102	  92
 166	  61	  51
 167	  45	  35
 168	  61	  51
 169	  57	  47
 170	  74	  64
 171	  99	  89
 172	  82	  72
 173	  99	  89
 174	  32	  22
 175	  62	  52
 176	  85	  75
 177	  95	  85
 178	  83	  73
 179	  93	  83
 180	  66	  56
 181	  68	  58
 182	  67	  57
 183	  74	  64
 184	  60	  50
 185	  76	  66
 186	  36	  26
 187	  90	  80
 188	  71	  61
 189	  64	  54
 190	  50	  40
 191	  99	  89
 192	  56	  46
 193	  55	  45
 194	  69	  59
 195	  61	  51
 196	  89	  79
 197	  83	  73
 198	 105	  95
 199	  52	  42
 200	  31	  21
 201	  74	  64
 202	  83	  73
 203	  78	  68
 204	  75	  65
 205	 110	 100
 206	  60	  50
 207	  91	  81
 208	  65	  55
 209	  81	  71
 210	  54	  44
 211	  73	  63
 212	  86	  76
 213	  46	  36
 214	  83	  73
 215	  84	  74
 216	 108	  98
 217	  46	  36
 218	 107	  97
 219	  33	  23
 220	  68	  58
 221	  60	  50
 222	  80	  70
 223	  85	  75
 224	 107	  97
 225	  86	  76
 226	  34	  24
 227	  82	  72
 228	  44	  34
 229	  46	  36
 230	  77	  67
 231	  55	  45
 232	  65	  55
 233	 104	  94
 234	  73	  63
 235	 110	 100
 236	 105	  95
 237	  64	  54
 238	  50	  40
 239	  72	  62
 240	  78	  68
 241	  97	  87
 242	  58	  48
 243	  47	  37
 244	  95	  85
 245	  83	  73
 246	  72	  62
 247	  32	  22
 248	  33	  23
 249	  43	  33
;

set E :=
   0	   9
   0	  25
   0	  32
   0	  34
   0	  36
   0	  43
   0	  46
   0	  63
   0	  83
   0	  88
   0	  91
   0	  92
   0	  94
   0	 112
   0	 114
   0	 120
   0	 127
   0	 131
   0	 154
   0	 156
   0	 167
   0	 175
   0	 176
   0	 204
   0	 209
   0	 224
   0	 244
   1	  26
   1	  32
   1	  35
   1	  49
   1	  52
   1	  77
   1	  83
   1	  85
   1	  89
   1	  98
   1	 107
   1	 134
   1	 139
   1	 152
   1	 170
   1	 175
   1	 183
   1	 198
   1	 208
   1	 212
   1	 213
   2	   9
   2	  14
   2	  42
   2	  45
   2	  54
   2	  59
   2	  76
   2	  82
   2	 103
   2	 108
   2	 110
   2	 121
   2	 135
   2	 141
   2	 155
   2	 164
   2	 181
   2	 187
   3	   9
   3	  10
   3	  15
   3	  20
   3	  26
   3	  34
   3	  51
   3	  63
   3	  99
   3	 104
   3	 141
   3	 160
   3	 166
   3	 184
   3	 185
   3	 202
   3	 226
   3	 231
   3	 239
   3	 244
   4	  14
   4	  38
   4	  40
   4	  42
   4	  49
   4	  51
   4	  60
   4	  61
   4	  64
   4	  68
   4	  71
   4	  89
   4	  93
   4	 101
   4	 112
   4	 118
   4	 124
   4	 128
   4	 150
   4	 161
   4	 197
   4	 211
   4	 219
   4	 224
   4	 237
   4	 239
   5	  22
   5	  45
   5	  62
   5	 104
   5	 116
   5	 119
   5	 124
   5	 131
   5	 163
   5	 171
   5	 223
   5	 225
   5	 237
   5	 248
   6	  10
   6	  13
   6	  32
   6	  42
   6	  47
   6	  48
   6	  55
   6	  61
   6	  64
   6	  68
   6	  71
   6	  83
   6	  88
   6	  89
   6	  92
   6	  93
   6	 101
   6	 102
   6	 105
   6	 112
   6	 126
   6	 130
   6	 133
   6	 141
   6	 142
   6	 157
   6	 158
   6	 162
   6	 169
   6	 192
   6	 209
   6	 217
   6	 225
   6	 228
   6	 238
   6	 241
   7	  14
   7	  16
   7	  21
   7	  24
   7	  28
   7	  29
   7	  70
   7	  73
   7	  80
   7	  84
   7	  87
   7	 101
   7	 141
   7	 145
   7	 147
   7	 153
   7	 170
   7	 171
   7	 180
   7	 205
   7	 214
   7	 232
   7	 236
   7	 245
   8	  23
   8	  38
   8	  41
   8	  63
   8	  67
   8	  72
   8	  84
   8	  85
   8	  89
   8	  98
   8	 103
   8	 115
   8	 124
   8	 126
   8	 130
   8	 160
   8	 204
   8	 208
   8	 209
   8	 210
   8	 213
   8	 223
   8	 239
   8	 243
   8	 249
   9	  11
   9	  15
   9	  35
   9	  37
   9	  45
   9	  61
   9	 117
   9	 131
   9	 135
   9	 151
   9	 154
   9	 155
   9	 161
   9	 162
   9	 170
   9	 175
   9	 208
   9	 209
   9	 218
   9	 233
   9	 234
  10	  11
  10	  22
  10	  32
  10	  40
  10	  43
  10	  55
  10	  76
  10	  79
  10	  90
  10	  91
  10	 105
  10	 112
  10	 124
  10	 130
  10	 143
  10	 162
  10	 208
  10	 211
  10	 234
  10	 239
  11	  14
  11	  16
  11	  52
  11	  59
  11	  66
  11	  72
  11	  75
  11	  81
  11	  85
  11	  92
  11	  93
  11	  94
  11	 113
  11	 126
  11	 142
  11	 152
  11	 155
  11	 159
  11	 187
  11	 188
  11	 197
  11	 226
  11	 240
  11	 248
  12	  13
  12	  22
  12	  41
  12	  49
  12	  51
  12	  52
  12	  86
  12	  87
  12	  88
  12	 108
  12	 109
  12	 115
  12	 134
  12	 140
  12	 142
  12	 149
  12	 151
  12	 156
  12	 159
  12	 167
  12	 175
  12	 177
  12	 183
  12	 199
  12	 224
  12	 238
  12	 247
  13	  25
  13	  41
  13	  57
  13	  60
  13	  76
  13	  98
  13	 104
  13	 109
  13	 112
  13	 115
  13	 118
  13	 144
  13	 161
  13	 165
  13	 171
  13	 175
  13	 192
  13	 205
  13	 208
  13	 224
  13	 237
  13	 248
  14	  21
  14	  23
  14	  34
  14	  43
  14	  53
  14	  59
  14	  65
  14	  69
  14	  86
  14	  94
  14	 119
  14	 124
  14	 171
  14	 187
  14	 194
  14	 201
  14	 208
  14	 209
  14	 212
  14	 216
  14	 233
  15	  55
  15	  78
  15	  93
  15	 100
  15	 101
  15	 106
  15	 108
  15	 113
  15	 120
  15	 127
  15	 129
  15	 152
  15	 162
  15	 188
  15	 198
  15	 201
  15	 203
  15	 206
  15	 221
  15	 225
  16	  29
  16	  30
  16	  35
  16	  43
  16	  44
  16	  70
  16	  78
  16	  79
  16	  96
  16	 104
  16	 111
  16	 117
  16	 120
  16	 134
  16	 155
  16	 159
  16	 188
  16	 201
  16	 208
  16	 210
  16	 227
  16	 228
  16	 243
  17	  27
  17	  49
  17	  71
  17	  74
  17	  80
  17	  82
  17	 103
  17	 116
  17	 118
  17	 119
  17	 122
  17	 123
  17	 135
  17	 141
  17	 156
  17	 167
  17	 194
  17	 208
  17	 234
  17	 240
  17	 245
  18	  27
  18	  47
  18	  62
  18	  67
  18	  97
  18	 103
  18	 113
  18	 119
  18	 120
  18	 122
  18	 133
  18	 139
  18	 150
  18	 155
  18	 156
  18	 158
  18	 159
  18	 171
  18	 179
  18	 181
  18	 186
  18	 223
  18	 230
  18	 236
  18	 242
  18	 243
  19	  22
  19	  24
  19	  33
  19	  43
  19	  47
  19	  59
  19	  73
  19	  92
  19	  95
  19	 134
  19	 141
  19	 181
  19	 190
  19	 201
  19	 211
  19	 214
  20	  55
  20	  71
  20	  79
  20	  80
  20	 118
  20	 123
  20	 125
  20	 132
  20	 137
  20	 153
  20	 160
  20	 161
  20	 165
  20	 166
  20	 171
  20	 176
  20	 189
  20	 192
  20	 194
  20	 196
  20	 231
  20	 238
  20	 242
  21	  23
  21	  44
  21	  46
  21	  56
  21	  57
  21	  74
  21	  87
  21	  89
  21	  93
  21	 105
  21	 118
  21	 140
  21	 145
  21	 156
  21	 166
  21	 193
  21	 196
  21	 202
  21	 213
  21	 215
  21	 219
  21	 222
  21	 227
  21	 241
  22	  32
  22	  44
  22	  54
  22	  61
  22	  86
  22	 101
  22	 112
  22	 136
  22	 156
  22	 191
  22	 202
  22	 203
  22	 217
  22	 227
  22	 234
  23	  37
  23	  40
  23	  60
  23	  96
  23	 127
  23	 146
  23	 147
  23	 167
  23	 175
  23	 182
  23	 189
  23	 196
  23	 201
  23	 234
  23	 247
  24	  30
  24	  33
  24	  37
  24	  41
  24	  43
  24	  54
  24	  63
  24	  70
  24	  71
  24	  85
  24	  91
  24	 103
  24	 108
  24	 110
  24	 111
  24	 114
  24	 124
  24	 126
  24	 127
  24	 143
  24	 146
  24	 147
  24	 150
  24	 154
  24	 160
  24	 170
  24	 196
  24	 197
  24	 221
  24	 236
  25	  27
  25	  31
  25	  32
  25	  37
  25	  39
  25	  60
  25	  66
  25	  80
  25	  81
  25	  91
  25	 100
  25	 104
  25	 112
  25	 136
  25	 137
  25	 144
  25	 164
  25	 165
  25	 169
  25	 171
  25	 173
  25	 176
  25	 177
  25	 181
  25	 207
  25	 226
  25	 233
  25	 235
  26	  27
  26	  30
  26	  36
  26	  58
  26	  69
  26	  76
  26	  85
  26	  86
  26	  90
  26	  92
  26	 103
  26	 110
  26	 113
  26	 115
  26	 122
  26	 129
  26	 134
  26	 153
  26	 154
  26	 171
  26	 173
  26	 175
  26	 180
  26	 184
  26	 194
  26	 211
  26	 214
  26	 218
  26	 221
  26	 222
  26	 232
  27	  35
  27	  42
  27	  62
  27	  64
  27	  71
  27	  95
  27	  98
  27	 109
  27	 111
  27	 114
  27	 131
  27	 168
  27	 183
  27	 185
  27	 196
  27	 209
  27	 210
  27	 219
  27	 224
  27	 228
  28	  32
  28	  47
  28	  48
  28	  56
  28	  66
  28	  71
  28	  80
  28	  86
  28	  97
  28	 130
  28	 138
  28	 143
  28	 161
  28	 162
  28	 170
  28	 177
  28	 198
  28	 199
  28	 201
  28	 217
  28	 239
  28	 241
  29	  34
  29	  36
  29	  38
  29	  41
  29	  67
  29	  68
  29	  80
  29	  85
  29	  95
  29	 105
  29	 124
  29	 130
  29	 140
  29	 143
  29	 151
  29	 155
  29	 165
  29	 171
  29	 174
  29	 176
  29	 184
  29	 186
  29	 200
  29	 221
  29	 238
  29	 243
  30	  40
  30	  41
  30	  57
  30	  61
  30	  73
  30	  74
  30	 102
  30	 111
  30	 112
  30	 113
  30	 122
  30	 125
  30	 132
  30	 138
  30	 140
  30	 174
  30	 184
  30	 210
  30	 212
  30	 213
  30	 225
  30	 247
  31	  49
  31	  64
  31	  65
  31	  75
  31	  79
  31	  80
  31	  82
  31	  91
  31	 104
  31	 125
  31	 148
  31	 160
  31	 199
  31	 207
  31	 210
  31	 218
  31	 224
  31	 235
  31	 242
  31	 248
  32	  48
  32	  59
  32	  84
  32	  85
  32	 124
  32	 148
  32	 152
  32	 173
  32	 217
  32	 219
  32	 221
  32	 224
  32	 236
  33	  35
  33	  36
  33	  96
  33	 131
  33	 152
  33	 153
  33	 157
  33	 167
  33	 169
  33	 182
  33	 197
  33	 216
  33	 232
  34	  52
  34	  67
  34	  72
  34	  87
  34	  97
  34	  99
  34	 111
  34	 120
  34	 121
  34	 126
  34	 128
  34	 133
  34	 140
  34	 144
  34	 146
  34	 155
  34	 161
  34	 171
  34	 181
  34	 183
  34	 196
  34	 198
  34	 205
  34	 210
  34	 212
  34	 215
  34	 237
  34	 238
  35	  49
  35	  65
  35	  79
  35	 113
  35	 115
  35	 126
  35	 143
  35	 145
  35	 153
  35	 156
  35	 162
  35	 171
  35	 188
  35	 201
  35	 204
  35	 215
  35	 217
  35	 222
  35	 240
  36	  37
  36	  46
  36	  48
  36	  62
  36	  66
  36	  69
  36	  84
  36	 103
  36	 112
  36	 117
  36	 118
  36	 128
  36	 134
  36	 135
  36	 155
  36	 160
  36	 167
  36	 177
  36	 193
  36	 196
  36	 200
  36	 202
  36	 207
  36	 211
  36	 216
  36	 221
  36	 223
  36	 226
  36	 229
  36	 231
  37	  46
  37	  47
  37	  72
  37	  82
  37	  85
  37	  87
  37	  89
  37	  95
  37	 102
  37	 125
  37	 130
  37	 133
  37	 138
  37	 139
  37	 142
  37	 145
  37	 147
  37	 156
  37	 158
  37	 166
  37	 179
  37	 182
  37	 200
  37	 205
  37	 211
  37	 213
  37	 218
  37	 220
  37	 227
  38	  53
  38	  93
  38	 106
  38	 108
  38	 125
  38	 133
  38	 138
  38	 146
  38	 147
  38	 151
  38	 158
  38	 166
  38	 167
  38	 172
  38	 183
  38	 198
  38	 200
  38	 218
  38	 225
  39	  53
  39	  55
  39	  58
  39	  59
  39	  81
  39	 105
  39	 113
  39	 116
  39	 166
  39	 168
  39	 171
  39	 173
  39	 181
  39	 182
  39	 191
  39	 198
  39	 209
  39	 229
  39	 236
  39	 238
  39	 248
  39	 249
  40	  63
  40	  72
  40	  89
  40	  99
  40	 138
  40	 142
  40	 162
  40	 163
  40	 165
  40	 168
  40	 169
  40	 179
  40	 188
  40	 196
  40	 197
  40	 228
  40	 233
  41	  52
  41	  53
  41	  58
  41	  59
  41	  66
  41	  96
  41	  99
  41	 106
  41	 132
  41	 138
  41	 158
  41	 167
  41	 176
  41	 195
  41	 211
  41	 213
  41	 225
  41	 227
  41	 238
  41	 239
  41	 240
  41	 245
  42	  43
  42	  55
  42	  83
  42	 100
  42	 108
  42	 116
  42	 121
  42	 140
  42	 154
  42	 173
  42	 218
  42	 221
  42	 226
  42	 227
  42	 233
  42	 243
  43	  50
  43	  52
  43	  57
  43	  71
  43	  73
  43	  78
  43	  79
  43	  84
  43	 112
  43	 120
  43	 129
  43	 133
  43	 137
  43	 143
  43	 158
  43	 161
  43	 163
  43	 165
  43	 169
  43	 173
  43	 175
  43	 182
  43	 183
  43	 188
  43	 190
  43	 202
  43	 228
  43	 236
  43	 239
  43	 244
  44	  50
  44	  67
  44	  70
  44	  72
  44	  76
  44	  81
  44	  85
  44	  93
  44	  95
  44	  96
  44	  98
  44	 103
  44	 114
  44	 116
  44	 133
  44	 148
  44	 152
  44	 159
  44	 182
  44	 186
  44	 202
  44	 214
  44	 215
  44	 217
  44	 218
  44	 227
  44	 231
  44	 242
  44	 249
  45	  47
  45	  62
  45	  67
  45	  76
  45	  79
  45	 102
  45	 115
  45	 116
  45	 126
  45	 129
  45	 134
  45	 145
  45	 146
  45	 150
  45	 153
  45	 155
  45	 165
  45	 167
  45	 182
  45	 204
  45	 217
  45	 225
  46	  62
  46	  76
  46	  83
  46	  86
  46	 102
  46	 105
  46	 107
  46	 109
  46	 112
  46	 114
  46	 121
  46	 123
  46	 126
  46	 129
  46	 130
  46	 137
  46	 153
  46	 175
  46	 179
  46	 187
  46	 196
  46	 202
  46	 207
  46	 212
  46	 223
  46	 229
  46	 230
  46	 237
  46	 245
  46	 249
  47	  48
  47	  87
  47	  90
  47	  98
  47	 113
  47	 118
  47	 126
  47	 138
  47	 139
  47	 159
  47	 160
  47	 164
  47	 172
  47	 194
  47	 203
  47	 208
  47	 215
  47	 233
  47	 239
  47	 247
  48	  58
  48	  66
  48	  90
  48	  91
  48	  94
  48	 104
  48	 110
  48	 117
  48	 132
  48	 149
  48	 152
  48	 160
  48	 178
  48	 183
  48	 191
  48	 215
  48	 238
  48	 242
  49	  66
  49	  75
  49	  79
  49	  86
  49	 102
  49	 111
  49	 142
  49	 149
  49	 152
  49	 154
  49	 166
  49	 172
  49	 189
  49	 196
  49	 209
  49	 215
  49	 221
  49	 223
  49	 227
  49	 236
  49	 239
  49	 240
  50	  53
  50	  55
  50	  64
  50	  68
  50	  75
  50	 115
  50	 117
  50	 122
  50	 149
  50	 164
  50	 171
  50	 173
  50	 182
  50	 192
  50	 204
  50	 206
  50	 217
  50	 220
  50	 230
  50	 232
  50	 244
  51	  64
  51	  66
  51	  86
  51	  88
  51	  94
  51	 124
  51	 132
  51	 144
  51	 145
  51	 166
  51	 184
  51	 196
  51	 210
  51	 216
  51	 233
  52	  69
  52	  82
  52	  84
  52	  89
  52	  92
  52	 101
  52	 122
  52	 129
  52	 137
  52	 139
  52	 141
  52	 144
  52	 146
  52	 148
  52	 155
  52	 158
  52	 164
  52	 185
  52	 198
  52	 199
  52	 219
  52	 231
  52	 234
  53	  55
  53	  57
  53	  69
  53	  75
  53	  94
  53	 105
  53	 119
  53	 121
  53	 136
  53	 155
  53	 167
  53	 173
  53	 174
  53	 180
  53	 195
  53	 198
  53	 205
  53	 214
  53	 218
  53	 221
  53	 224
  53	 229
  53	 243
  54	  79
  54	  83
  54	  85
  54	  86
  54	  97
  54	 130
  54	 131
  54	 140
  54	 181
  54	 192
  54	 193
  54	 198
  54	 213
  54	 215
  54	 241
  54	 243
  55	  83
  55	  92
  55	  93
  55	  94
  55	 121
  55	 134
  55	 149
  55	 200
  55	 206
  55	 217
  55	 220
  55	 236
  55	 248
  56	  63
  56	  85
  56	  86
  56	 115
  56	 121
  56	 162
  56	 165
  56	 167
  56	 191
  56	 217
  56	 219
  56	 227
  56	 228
  57	  60
  57	  73
  57	  99
  57	 171
  57	 183
  57	 195
  57	 206
  57	 207
  57	 209
  57	 219
  57	 226
  57	 227
  57	 228
  57	 240
  57	 246
  58	  64
  58	  68
  58	  83
  58	  96
  58	 105
  58	 125
  58	 130
  58	 134
  58	 140
  58	 163
  58	 174
  58	 179
  58	 193
  58	 198
  58	 201
  58	 229
  58	 240
  58	 246
  59	  71
  59	  79
  59	  91
  59	  98
  59	 115
  59	 117
  59	 119
  59	 166
  59	 167
  59	 185
  59	 198
  59	 200
  59	 206
  59	 221
  59	 222
  59	 226
  59	 237
  59	 245
  59	 246
  60	 118
  60	 128
  60	 133
  60	 148
  60	 161
  60	 175
  60	 189
  60	 206
  60	 209
  60	 218
  60	 222
  60	 246
  61	  91
  61	  98
  61	 100
  61	 103
  61	 104
  61	 107
  61	 108
  61	 123
  61	 125
  61	 144
  61	 146
  61	 166
  61	 177
  61	 178
  61	 191
  61	 193
  61	 196
  61	 205
  61	 207
  61	 209
  61	 211
  61	 215
  61	 220
  61	 222
  61	 224
  62	  66
  62	  78
  62	  86
  62	  89
  62	  90
  62	  93
  62	 104
  62	 106
  62	 122
  62	 125
  62	 131
  62	 155
  62	 170
  62	 173
  62	 202
  62	 204
  62	 206
  62	 208
  62	 215
  62	 216
  62	 228
  62	 237
  62	 241
  62	 249
  63	  78
  63	 105
  63	 110
  63	 111
  63	 118
  63	 119
  63	 122
  63	 134
  63	 137
  63	 140
  63	 152
  63	 157
  63	 159
  63	 178
  63	 180
  63	 191
  63	 198
  63	 207
  63	 209
  63	 236
  63	 241
  64	  70
  64	  77
  64	  79
  64	  88
  64	  89
  64	  99
  64	 101
  64	 105
  64	 111
  64	 120
  64	 128
  64	 130
  64	 134
  64	 146
  64	 151
  64	 167
  64	 182
  64	 199
  64	 230
  64	 240
  64	 242
  65	  67
  65	  70
  65	  83
  65	 110
  65	 111
  65	 115
  65	 120
  65	 123
  65	 125
  65	 158
  65	 164
  65	 171
  65	 179
  65	 184
  65	 187
  65	 195
  65	 231
  65	 244
  65	 245
  66	  67
  66	  74
  66	  81
  66	  84
  66	  89
  66	  92
  66	  98
  66	 106
  66	 113
  66	 123
  66	 126
  66	 135
  66	 139
  66	 142
  66	 143
  66	 158
  66	 168
  66	 181
  66	 183
  66	 189
  66	 192
  66	 195
  66	 199
  66	 200
  66	 208
  66	 210
  66	 231
  66	 244
  66	 248
  67	  73
  67	  78
  67	  82
  67	  89
  67	 100
  67	 108
  67	 119
  67	 145
  67	 162
  67	 163
  67	 170
  67	 172
  67	 179
  67	 184
  67	 186
  67	 191
  67	 198
  67	 222
  67	 228
  67	 248
  68	  89
  68	 100
  68	 116
  68	 129
  68	 134
  68	 137
  68	 139
  68	 145
  68	 148
  68	 155
  68	 162
  68	 165
  68	 169
  68	 187
  68	 229
  69	  93
  69	 112
  69	 113
  69	 114
  69	 139
  69	 143
  69	 152
  69	 160
  69	 167
  69	 169
  69	 171
  69	 172
  69	 187
  69	 189
  69	 196
  69	 198
  69	 233
  69	 242
  69	 246
  70	  73
  70	  74
  70	  79
  70	  80
  70	  89
  70	 107
  70	 118
  70	 126
  70	 129
  70	 131
  70	 151
  70	 170
  70	 197
  70	 209
  70	 216
  70	 217
  70	 221
  70	 227
  70	 229
  70	 245
  71	  74
  71	  96
  71	 126
  71	 130
  71	 133
  71	 141
  71	 145
  71	 146
  71	 148
  71	 159
  71	 179
  71	 181
  71	 204
  71	 226
  72	  73
  72	  76
  72	  85
  72	  96
  72	  97
  72	 100
  72	 101
  72	 114
  72	 116
  72	 127
  72	 158
  72	 165
  72	 166
  72	 170
  72	 174
  72	 176
  72	 185
  72	 189
  72	 195
  72	 205
  72	 207
  72	 211
  72	 223
  72	 244
  73	 100
  73	 103
  73	 106
  73	 119
  73	 120
  73	 126
  73	 129
  73	 139
  73	 141
  73	 146
  73	 152
  73	 157
  73	 162
  73	 170
  73	 171
  73	 198
  73	 208
  73	 209
  73	 225
  74	  96
  74	 105
  74	 114
  74	 131
  74	 141
  74	 154
  74	 160
  74	 162
  74	 167
  74	 193
  74	 203
  74	 224
  74	 231
  75	  76
  75	 107
  75	 125
  75	 130
  75	 152
  75	 161
  75	 197
  75	 198
  75	 208
  75	 229
  75	 245
  76	  87
  76	 100
  76	 116
  76	 120
  76	 157
  76	 158
  76	 165
  76	 166
  76	 191
  76	 197
  76	 214
  76	 215
  76	 221
  76	 224
  76	 230
  76	 240
  77	  82
  77	  87
  77	  92
  77	  99
  77	 108
  77	 109
  77	 111
  77	 153
  77	 169
  77	 174
  77	 185
  77	 186
  77	 224
  77	 232
  77	 233
  77	 244
  78	  89
  78	  95
  78	 122
  78	 132
  78	 134
  78	 152
  78	 155
  78	 161
  78	 162
  78	 167
  78	 178
  78	 182
  78	 200
  78	 207
  78	 215
  78	 219
  78	 230
  78	 239
  79	  91
  79	 120
  79	 130
  79	 138
  79	 143
  79	 147
  79	 155
  79	 158
  79	 169
  79	 171
  79	 175
  79	 182
  79	 183
  79	 185
  79	 188
  79	 195
  79	 207
  79	 211
  79	 232
  79	 236
  79	 248
  80	  99
  80	 102
  80	 104
  80	 105
  80	 109
  80	 120
  80	 123
  80	 125
  80	 133
  80	 145
  80	 161
  80	 167
  80	 169
  80	 216
  80	 227
  80	 230
  80	 234
  80	 240
  80	 246
  81	  84
  81	 101
  81	 125
  81	 134
  81	 135
  81	 137
  81	 140
  81	 174
  81	 197
  81	 206
  81	 208
  81	 215
  81	 229
  81	 235
  81	 236
  81	 247
  82	  83
  82	  87
  82	  90
  82	 106
  82	 107
  82	 118
  82	 119
  82	 123
  82	 133
  82	 135
  82	 136
  82	 153
  82	 157
  82	 158
  82	 192
  82	 219
  82	 228
  82	 231
  82	 237
  82	 246
  83	  85
  83	  95
  83	 108
  83	 115
  83	 120
  83	 125
  83	 130
  83	 137
  83	 147
  83	 155
  83	 159
  83	 165
  83	 186
  83	 190
  83	 192
  83	 217
  83	 220
  83	 222
  83	 225
  83	 232
  83	 239
  83	 249
  84	  92
  84	  99
  84	 121
  84	 128
  84	 130
  84	 132
  84	 135
  84	 140
  84	 143
  84	 144
  84	 152
  84	 160
  84	 173
  84	 193
  84	 201
  84	 215
  84	 228
  84	 236
  85	  87
  85	  92
  85	 104
  85	 112
  85	 122
  85	 152
  85	 161
  85	 182
  85	 187
  85	 203
  85	 208
  85	 216
  85	 217
  85	 221
  85	 225
  85	 226
  85	 228
  85	 244
  86	  88
  86	  89
  86	  95
  86	 116
  86	 122
  86	 134
  86	 137
  86	 161
  86	 176
  86	 196
  86	 197
  86	 208
  86	 229
  86	 238
  87	 121
  87	 126
  87	 156
  87	 157
  87	 168
  87	 175
  87	 177
  87	 191
  87	 206
  87	 231
  87	 249
  88	  89
  88	  90
  88	  93
  88	  95
  88	  96
  88	 118
  88	 119
  88	 144
  88	 145
  88	 149
  88	 160
  88	 182
  88	 189
  88	 194
  88	 196
  88	 203
  88	 211
  88	 213
  88	 215
  88	 220
  88	 228
  88	 236
  88	 248
  89	  92
  89	 100
  89	 114
  89	 129
  89	 136
  89	 143
  89	 144
  89	 145
  89	 152
  89	 159
  89	 163
  89	 164
  89	 211
  89	 219
  89	 224
  89	 234
  89	 240
  89	 242
  89	 246
  90	 103
  90	 135
  90	 152
  90	 163
  90	 182
  90	 183
  90	 202
  90	 206
  90	 228
  90	 243
  90	 247
  91	  95
  91	  96
  91	 110
  91	 119
  91	 123
  91	 147
  91	 162
  91	 165
  91	 185
  91	 188
  91	 214
  91	 222
  91	 232
  91	 235
  91	 236
  91	 246
  92	 109
  92	 122
  92	 131
  92	 132
  92	 160
  92	 168
  92	 176
  92	 179
  92	 186
  92	 189
  92	 196
  92	 197
  92	 202
  92	 208
  92	 209
  92	 229
  92	 237
  92	 242
  92	 247
  93	  96
  93	 107
  93	 112
  93	 130
  93	 134
  93	 155
  93	 156
  93	 184
  93	 190
  93	 194
  93	 207
  93	 219
  93	 242
  94	  96
  94	  97
  94	 108
  94	 111
  94	 124
  94	 139
  94	 142
  94	 145
  94	 146
  94	 150
  94	 161
  94	 188
  94	 193
  94	 195
  94	 199
  94	 223
  94	 236
  94	 238
  94	 242
  95	 102
  95	 105
  95	 114
  95	 127
  95	 133
  95	 139
  95	 144
  95	 146
  95	 153
  95	 160
  95	 168
  95	 174
  95	 179
  95	 181
  95	 190
  95	 213
  95	 242
  96	 106
  96	 134
  96	 135
  96	 141
  96	 148
  96	 154
  96	 160
  96	 166
  96	 168
  96	 169
  96	 205
  96	 222
  96	 224
  96	 245
  97	 114
  97	 125
  97	 130
  97	 134
  97	 139
  97	 140
  97	 141
  97	 148
  97	 151
  97	 178
  97	 180
  97	 194
  97	 202
  97	 218
  97	 223
  97	 225
  98	 107
  98	 108
  98	 112
  98	 125
  98	 140
  98	 143
  98	 175
  98	 181
  98	 188
  98	 197
  98	 206
  98	 209
  98	 217
  98	 229
  98	 234
  98	 240
  98	 246
  99	 127
  99	 140
  99	 147
  99	 153
  99	 172
  99	 192
  99	 194
  99	 214
  99	 225
  99	 227
  99	 235
 100	 104
 100	 115
 100	 118
 100	 128
 100	 133
 100	 138
 100	 158
 100	 162
 100	 165
 100	 167
 100	 168
 100	 176
 100	 183
 100	 186
 100	 193
 100	 210
 101	 109
 101	 130
 101	 131
 101	 137
 101	 143
 101	 146
 101	 151
 101	 164
 101	 185
 101	 218
 101	 236
 101	 248
 102	 108
 102	 140
 102	 144
 102	 177
 102	 179
 102	 180
 102	 194
 102	 201
 102	 203
 102	 214
 102	 216
 102	 218
 102	 231
 102	 249
 103	 118
 103	 124
 103	 125
 103	 140
 103	 144
 103	 148
 103	 151
 103	 155
 103	 169
 103	 212
 103	 213
 103	 219
 103	 225
 103	 231
 103	 235
 103	 238
 103	 244
 104	 126
 104	 133
 104	 140
 104	 141
 104	 146
 104	 153
 104	 154
 104	 184
 104	 204
 104	 227
 104	 237
 104	 244
 104	 245
 105	 111
 105	 112
 105	 117
 105	 128
 105	 138
 105	 145
 105	 156
 105	 160
 105	 162
 105	 189
 105	 197
 105	 200
 105	 201
 105	 206
 105	 217
 105	 218
 105	 244
 105	 247
 106	 117
 106	 123
 106	 154
 106	 165
 106	 171
 106	 172
 106	 216
 106	 227
 106	 238
 106	 244
 106	 247
 106	 249
 107	 109
 107	 128
 107	 130
 107	 140
 107	 148
 107	 149
 107	 155
 107	 162
 107	 165
 107	 167
 107	 170
 107	 193
 107	 220
 107	 233
 107	 235
 107	 237
 107	 243
 108	 135
 108	 138
 108	 141
 108	 145
 108	 152
 108	 154
 108	 155
 108	 163
 108	 171
 108	 177
 108	 186
 108	 221
 108	 237
 109	 118
 109	 125
 109	 126
 109	 143
 109	 150
 109	 154
 109	 162
 109	 173
 109	 192
 109	 193
 109	 196
 109	 202
 109	 210
 109	 219
 109	 227
 110	 114
 110	 129
 110	 139
 110	 180
 110	 188
 110	 203
 110	 214
 110	 215
 110	 216
 110	 217
 110	 224
 110	 237
 110	 247
 111	 114
 111	 143
 111	 145
 111	 152
 111	 161
 111	 186
 111	 201
 111	 205
 111	 218
 111	 229
 111	 230
 112	 121
 112	 129
 112	 148
 112	 162
 112	 175
 112	 179
 112	 181
 112	 184
 112	 203
 112	 220
 112	 223
 112	 224
 112	 225
 112	 244
 112	 249
 113	 136
 113	 152
 113	 186
 113	 192
 113	 194
 113	 204
 113	 205
 113	 212
 113	 232
 113	 235
 113	 239
 113	 247
 114	 117
 114	 129
 114	 131
 114	 136
 114	 138
 114	 145
 114	 164
 114	 183
 114	 189
 114	 208
 114	 213
 114	 214
 114	 216
 114	 217
 114	 237
 115	 122
 115	 125
 115	 145
 115	 165
 115	 172
 115	 198
 115	 204
 115	 211
 116	 150
 116	 151
 116	 168
 116	 191
 116	 200
 116	 233
 116	 235
 116	 241
 116	 244
 116	 245
 117	 125
 117	 140
 117	 148
 117	 153
 117	 163
 117	 168
 117	 184
 117	 189
 117	 194
 117	 197
 117	 208
 117	 211
 117	 220
 117	 225
 117	 226
 118	 125
 118	 138
 118	 157
 118	 160
 118	 167
 118	 168
 118	 173
 118	 178
 118	 181
 118	 185
 118	 194
 118	 196
 118	 212
 118	 215
 118	 217
 118	 224
 118	 226
 118	 240
 119	 132
 119	 142
 119	 155
 119	 166
 119	 167
 119	 188
 119	 192
 119	 204
 119	 230
 119	 235
 119	 241
 120	 130
 120	 134
 120	 153
 120	 154
 120	 174
 120	 181
 120	 183
 120	 197
 120	 198
 120	 200
 120	 203
 120	 217
 120	 231
 120	 232
 120	 237
 121	 127
 121	 134
 121	 136
 121	 150
 121	 151
 121	 162
 121	 163
 121	 195
 121	 196
 121	 197
 121	 211
 121	 214
 121	 217
 121	 218
 121	 221
 121	 225
 121	 227
 121	 228
 122	 126
 122	 145
 122	 149
 122	 150
 122	 151
 122	 157
 122	 160
 122	 171
 122	 178
 122	 184
 122	 188
 122	 193
 122	 199
 122	 200
 122	 202
 122	 204
 122	 209
 122	 210
 122	 211
 122	 219
 122	 220
 122	 228
 122	 236
 123	 127
 123	 140
 123	 145
 123	 155
 123	 162
 123	 165
 123	 173
 123	 202
 123	 208
 124	 158
 124	 172
 124	 182
 124	 218
 125	 132
 125	 134
 125	 138
 125	 139
 125	 143
 125	 160
 125	 161
 125	 167
 125	 181
 125	 183
 125	 198
 125	 208
 125	 211
 125	 227
 125	 232
 125	 243
 125	 248
 125	 249
 126	 130
 126	 136
 126	 157
 126	 159
 126	 182
 126	 199
 126	 206
 126	 214
 126	 215
 126	 238
 126	 244
 127	 128
 127	 142
 127	 143
 127	 158
 127	 167
 127	 168
 127	 185
 127	 189
 127	 196
 127	 217
 127	 231
 128	 138
 128	 144
 128	 149
 128	 166
 128	 169
 128	 171
 128	 180
 128	 203
 128	 216
 128	 224
 129	 131
 129	 138
 129	 165
 129	 179
 129	 186
 129	 200
 129	 214
 129	 217
 129	 222
 129	 226
 129	 237
 129	 240
 129	 249
 130	 138
 130	 145
 130	 155
 130	 156
 130	 158
 130	 160
 130	 164
 130	 173
 130	 179
 130	 183
 130	 184
 130	 186
 130	 194
 130	 219
 130	 238
 131	 139
 131	 180
 131	 181
 131	 182
 131	 199
 131	 210
 131	 211
 131	 214
 131	 233
 131	 237
 131	 240
 131	 243
 131	 245
 132	 140
 132	 143
 132	 144
 132	 146
 132	 158
 132	 159
 132	 163
 132	 171
 132	 178
 132	 191
 132	 192
 132	 197
 132	 201
 132	 202
 132	 205
 132	 208
 132	 215
 132	 224
 132	 234
 133	 154
 133	 157
 133	 173
 133	 183
 133	 190
 133	 196
 133	 205
 133	 211
 133	 217
 133	 235
 133	 242
 133	 249
 134	 140
 134	 152
 134	 155
 134	 164
 134	 180
 134	 188
 134	 206
 134	 233
 134	 243
 134	 249
 135	 146
 135	 178
 135	 181
 135	 191
 135	 203
 135	 207
 135	 227
 135	 231
 135	 234
 135	 241
 136	 138
 136	 142
 136	 145
 136	 147
 136	 156
 136	 177
 136	 222
 137	 144
 137	 149
 137	 175
 137	 182
 137	 189
 137	 194
 137	 197
 137	 218
 138	 144
 138	 153
 138	 156
 138	 163
 138	 171
 138	 184
 138	 210
 138	 215
 138	 221
 138	 229
 138	 233
 138	 244
 139	 156
 139	 163
 139	 164
 139	 166
 139	 168
 139	 170
 139	 186
 139	 193
 139	 199
 139	 217
 139	 218
 139	 220
 139	 225
 139	 237
 140	 156
 140	 192
 140	 195
 140	 200
 140	 207
 140	 221
 140	 246
 141	 162
 141	 164
 141	 166
 141	 171
 141	 177
 141	 184
 141	 187
 141	 189
 141	 216
 141	 230
 141	 238
 142	 154
 142	 159
 142	 167
 142	 169
 142	 175
 142	 177
 142	 184
 142	 195
 142	 229
 142	 234
 142	 247
 143	 156
 143	 168
 143	 183
 143	 184
 143	 200
 143	 204
 143	 225
 143	 244
 144	 146
 144	 147
 144	 155
 144	 159
 144	 161
 144	 191
 144	 210
 144	 217
 144	 220
 144	 245
 144	 249
 145	 148
 145	 151
 145	 173
 145	 180
 145	 190
 145	 227
 145	 232
 145	 234
 145	 237
 146	 163
 146	 167
 146	 168
 146	 173
 146	 174
 146	 181
 146	 191
 146	 201
 146	 211
 147	 148
 147	 168
 147	 169
 147	 170
 147	 174
 147	 183
 147	 184
 147	 187
 147	 190
 147	 191
 147	 200
 147	 202
 147	 209
 147	 213
 147	 214
 147	 222
 147	 244
 148	 156
 148	 157
 148	 167
 148	 170
 148	 195
 148	 207
 148	 212
 148	 226
 148	 230
 149	 156
 149	 157
 149	 169
 149	 221
 149	 230
 149	 233
 149	 234
 150	 155
 150	 158
 150	 163
 150	 167
 150	 168
 150	 192
 150	 222
 150	 225
 150	 233
 150	 235
 150	 244
 151	 157
 151	 164
 151	 172
 151	 180
 151	 182
 151	 186
 151	 188
 151	 199
 151	 200
 151	 202
 151	 208
 151	 234
 152	 169
 152	 173
 152	 197
 152	 210
 152	 221
 152	 223
 152	 228
 152	 239
 153	 154
 153	 158
 153	 165
 153	 168
 153	 169
 153	 196
 153	 198
 153	 201
 153	 210
 153	 224
 153	 238
 154	 186
 154	 190
 154	 191
 154	 193
 154	 196
 154	 214
 154	 228
 154	 232
 154	 235
 154	 242
 154	 243
 155	 160
 155	 165
 155	 166
 155	 168
 155	 204
 155	 212
 155	 213
 155	 222
 155	 226
 155	 237
 155	 238
 155	 243
 156	 165
 156	 170
 156	 171
 156	 174
 156	 181
 156	 200
 156	 208
 156	 228
 156	 242
 156	 249
 157	 158
 157	 166
 157	 184
 157	 202
 157	 211
 157	 222
 157	 223
 157	 227
 157	 231
 157	 237
 157	 244
 158	 166
 158	 203
 158	 215
 158	 219
 158	 220
 158	 232
 159	 170
 159	 172
 159	 178
 159	 191
 159	 194
 159	 195
 159	 204
 159	 224
 159	 229
 159	 232
 159	 235
 159	 237
 159	 241
 159	 242
 159	 244
 159	 247
 160	 171
 160	 184
 160	 198
 160	 211
 160	 229
 160	 246
 161	 201
 161	 204
 161	 211
 161	 222
 161	 240
 162	 168
 162	 178
 162	 180
 162	 182
 162	 196
 162	 199
 162	 215
 162	 225
 163	 164
 163	 166
 163	 190
 163	 214
 163	 223
 163	 231
 163	 247
 164	 171
 164	 191
 164	 207
 164	 225
 164	 229
 164	 231
 164	 239
 164	 245
 165	 226
 165	 227
 165	 241
 165	 247
 166	 179
 166	 181
 166	 184
 166	 185
 166	 192
 166	 196
 166	 200
 167	 178
 167	 202
 167	 204
 167	 216
 167	 229
 168	 173
 168	 174
 168	 183
 168	 191
 168	 209
 168	 217
 168	 226
 168	 244
 168	 246
 169	 174
 169	 176
 169	 182
 169	 190
 169	 191
 169	 193
 169	 201
 170	 194
 170	 225
 170	 226
 170	 232
 170	 238
 170	 241
 170	 246
 170	 247
 170	 248
 171	 186
 171	 208
 171	 213
 171	 214
 171	 233
 171	 236
 172	 173
 172	 185
 172	 189
 172	 236
 173	 197
 173	 213
 173	 216
 173	 227
 173	 232
 173	 233
 173	 234
 174	 176
 174	 181
 174	 183
 174	 184
 174	 186
 174	 199
 174	 207
 174	 210
 174	 217
 174	 234
 174	 239
 175	 218
 175	 220
 175	 229
 175	 232
 175	 233
 175	 234
 176	 187
 176	 195
 176	 200
 176	 202
 176	 213
 176	 235
 176	 243
 177	 178
 177	 184
 177	 192
 177	 217
 177	 223
 177	 232
 177	 245
 178	 180
 178	 181
 178	 186
 178	 195
 178	 201
 178	 202
 178	 205
 178	 209
 178	 211
 178	 225
 178	 243
 179	 189
 179	 192
 179	 193
 179	 207
 179	 214
 179	 234
 179	 241
 179	 243
 180	 193
 180	 203
 180	 218
 180	 219
 180	 222
 180	 228
 180	 243
 181	 186
 181	 189
 181	 196
 181	 212
 181	 222
 181	 223
 181	 231
 181	 248
 182	 190
 182	 191
 182	 224
 182	 240
 182	 248
 183	 190
 183	 192
 183	 208
 183	 238
 183	 241
 184	 187
 184	 210
 184	 211
 184	 247
 185	 192
 185	 195
 185	 215
 185	 216
 185	 219
 185	 234
 186	 191
 186	 225
 186	 246
 187	 194
 187	 199
 187	 214
 187	 229
 187	 245
 188	 209
 188	 222
 188	 240
 188	 247
 189	 210
 189	 213
 189	 214
 189	 219
 189	 239
 189	 241
 189	 249
 190	 191
 190	 192
 190	 204
 190	 205
 190	 207
 190	 216
 190	 230
 190	 236
 190	 237
 190	 246
 191	 204
 191	 208
 191	 223
 191	 246
 192	 213
 192	 216
 192	 225
 192	 227
 192	 228
 192	 232
 192	 243
 193	 204
 193	 216
 193	 226
 193	 237
 194	 205
 194	 226
 195	 198
 195	 210
 195	 229
 196	 208
 196	 222
 196	 229
 196	 242
 197	 204
 197	 205
 197	 206
 197	 221
 197	 235
 197	 237
 197	 244
 197	 246
 198	 215
 198	 223
 198	 247
 199	 203
 199	 224
 199	 237
 199	 242
 199	 245
 200	 204
 200	 215
 200	 217
 200	 222
 200	 223
 200	 247
 200	 248
 201	 205
 201	 213
 201	 232
 201	 242
 201	 246
 202	 203
 202	 211
 202	 225
 202	 239
 202	 249
 203	 204
 203	 218
 203	 220
 203	 221
 203	 233
 203	 241
 203	 244
 204	 215
 204	 221
 204	 222
 204	 226
 204	 232
 204	 233
 204	 240
 204	 243
 204	 245
 204	 246
 205	 227
 205	 233
 206	 208
 206	 210
 206	 221
 206	 239
 206	 248
 207	 214
 207	 216
 207	 235
 207	 239
 208	 212
 208	 232
 208	 235
 208	 242
 208	 243
 209	 227
 209	 236
 210	 216
 210	 217
 210	 220
 210	 224
 210	 225
 210	 234
 211	 212
 211	 214
 211	 219
 211	 229
 211	 230
 211	 244
 212	 219
 212	 220
 212	 227
 212	 230
 212	 240
 212	 247
 213	 214
 213	 231
 214	 222
 214	 234
 214	 236
 214	 245
 215	 232
 215	 235
 215	 239
 215	 247
 216	 225
 216	 230
 216	 243
 216	 246
 217	 218
 217	 229
 217	 233
 217	 246
 218	 243
 218	 246
 219	 248
 219	 249
 220	 228
 221	 231
 221	 238
 221	 244
 221	 247
 222	 240
 222	 243
 223	 227
 223	 231
 223	 240
 225	 242
 225	 243
 226	 245
 227	 230
 227	 233
 227	 240
 229	 232
 229	 234
 230	 241
 230	 244
 231	 238
 231	 247
 232	 245
 235	 242
 235	 246
 236	 242
 236	 243
 236	 249
 237	 240
 237	 242
 237	 246
 238	 241
 238	 249
 239	 242
 241	 245
 244	 246
 244	 247
 245	 247
 246	 248
 248	 249
;
